DIMACS2
80 283 209 62 65 237 272 174 53 261 133 213 212 243 300 50 24 13 160 258 199 67 116 224 172 128 168 262 222 201 85 194 23 88 55 257 202 303 167 149 265 264 287 19 318 57 310 41 200 181 271 1 135 156 256 109 144 247 273 137 146 165 83 171 113 291 218 86 72 21 193 248 159 244 48 304 56 255 279 252 42
p edge 320 322
e 0 12 3.0
e 1 96 15.0
e 2 59 1.0
e 3 314 1.0
e 4 87 1.0
e 5 173 1.0
e 5 0 1.0
e 6 30 1.0
e 7 123 2.0
e 8 184 1.0
e 9 120 2.0
e 10 101 2.0
e 10 5 2.0
e 11 172 3.0
e 12 23 44.0
e 13 264 26.0
e 14 121 1.0
e 15 148 3.0
e 16 8 1.0
e 17 126 6.0
e 18 144 38.0
e 19 156 25.0
e 20 58 1.0
e 21 292 14.0
e 22 151 2.0
e 23 80 43.0
e 24 87 36.0
e 25 116 6.0
e 26 240 1.0
e 27 192 1.0
e 28 205 5.0
e 29 235 2.0
e 30 67 40.0
e 31 281 1.0
e 32 46 2.0
e 33 265 23.0
e 34 191 1.0
e 35 182 2.0
e 36 4 2.0
e 37 11 2.0
e 38 42 39.0
e 39 34 1.0
e 40 247 35.0
e 41 283 3.0
e 42 244 30.0
e 43 8 1.0
e 44 252 17.0
e 45 28 1.0
e 46 279 26.0
e 47 73 1.0
e 48 173 14.0
e 49 158 1.0
e 50 22 31.0
e 51 213 46.0
e 52 247 18.0
e 53 234 34.0
e 54 210 1.0
e 55 254 43.0
e 56 216 37.0
e 57 78 20.0
e 58 30 2.0
e 59 309 1.0
e 60 73 1.0
e 61 62 27.0
e 62 244 27.0
e 63 181 31.0
e 64 128 34.0
e 65 144 30.0
e 66 122 6.0
e 67 118 6.0
e 68 86 17.0
e 69 230 1.0
e 70 97 1.0
e 71 187 1.0
e 72 186 45.0
e 73 41 35.0
e 74 87 1.0
e 75 33 9.0
e 76 31 1.0
e 77 121 1.0
e 78 277 4.0
e 79 19 42.0
e 80 138 1.0
e 81 121 3.0
e 82 12 3.0
e 83 188 47.0
e 84 29 2.0
e 85 213 43.0
e 86 268 11.0
e 87 29 2.0
e 88 268 3.0
e 89 286 1.0
e 90 258 23.0
e 91 24 1.0
e 92 9 2.0
e 93 90 2.0
e 94 67 28.0
e 95 281 1.0
e 96 80 1.0
e 97 220 1.0
e 98 5 2.0
e 99 143 1.0
e 100 17 3.0
e 101 129 1.0
e 102 151 1.0
e 103 82 2.0
e 104 205 1.0
e 105 253 1.0
e 106 3 1.0
e 107 56 42.0
e 108 56 2.0
e 109 280 7.0
e 110 313 1.0
e 111 207 1.0
e 112 43 1.0
e 113 300 21.0
e 114 318 15.0
e 115 276 1.0
e 116 203 23.0
e 117 47 2.0
e 118 66 1.0
e 119 276 1.0
e 120 166 2.0
e 121 232 1.0
e 122 15 1.0
e 123 177 1.0
e 124 61 1.0
e 125 215 1.0
e 126 246 4.0
e 127 166 1.0
e 128 91 8.0
e 129 107 1.0
e 130 40 1.0
e 131 253 1.0
e 132 285 1.0
e 133 186 16.0
e 134 289 1.0
e 135 203 16.0
e 136 91 1.0
e 137 125 43.0
e 138 6 1.0
e 139 54 1.0
e 140 239 1.0
e 141 292 2.0
e 142 179 1.0
e 143 313 1.0
e 144 186 1.0
e 145 257 42.0
e 146 280 20.0
e 147 122 3.0
e 148 186 2.0
e 149 80 3.0
e 150 260 1.0
e 151 211 1.0
e 152 8 1.0
e 153 143 1.0
e 154 246 6.0
e 155 249 2.0
e 156 279 23.0
e 157 148 2.0
e 158 260 1.0
e 159 17 20.0
e 160 225 28.0
e 161 198 1.0
e 162 150 2.0
e 163 32 1.0
e 164 160 49.0
e 165 244 15.0
e 166 279 22.0
e 167 137 23.0
e 168 254 11.0
e 169 124 1.0
e 170 190 3.0
e 171 63 32.0
e 172 125 17.0
e 173 205 1.0
e 174 242 11.0
e 175 38 1.0
e 176 286 1.0
e 177 154 1.0
e 178 283 45.0
e 179 74 1.0
e 180 287 43.0
e 181 302 13.0
e 182 211 1.0
e 183 188 2.0
e 184 309 1.0
e 185 317 1.0
e 186 92 1.0
e 187 213 27.0
e 188 11 2.0
e 189 286 1.0
e 190 314 1.0
e 191 240 1.0
e 192 311 1.0
e 193 196 23.0
e 194 312 6.0
e 195 29 1.0
e 196 154 4.0
e 197 282 1.0
e 198 185 1.0
e 199 303 15.0
e 200 61 24.0
e 201 258 42.0
e 202 221 44.0
e 203 248 16.0
e 204 305 5.0
e 205 139 1.0
e 206 145 1.0
e 207 244 17.0
e 208 136 1.0
e 209 81 26.0
e 210 205 1.0
e 211 229 1.0
e 212 24 31.0
e 213 123 40.0
e 214 217 1.0
e 215 12 5.0
e 216 192 9.0
e 217 135 49.0
e 218 130 45.0
e 219 285 2.0
e 220 210 1.0
e 221 35 6.0
e 222 7 13.0
e 223 10 1.0
e 224 122 36.0
e 225 294 1.0
e 226 276 1.0
e 227 184 1.0
e 228 71 1.0
e 229 149 45.0
e 230 105 1.0
e 231 248 9.0
e 232 271 20.0
e 233 253 1.0
e 234 209 15.0
e 235 112 2.0
e 236 114 2.0
e 237 203 22.0
e 238 268 1.0
e 239 81 1.0
e 240 4 1.0
e 241 5 1.0
e 242 235 1.0
e 243 225 43.0
e 244 101 1.0
e 245 43 1.0
e 246 262 29.0
e 247 181 5.0
e 248 247 31.0
e 249 45 1.0
e 250 41 2.0
e 251 105 1.0
e 252 276 34.0
e 253 256 12.0
e 254 278 1.0
e 255 318 42.0
e 256 92 21.0
e 257 229 43.0
e 258 13 43.0
e 259 42 9.0
e 260 72 44.0
e 261 118 31.0
e 262 140 8.0
e 263 207 2.0
e 264 3 40.0
e 265 314 11.0
e 266 204 6.0
e 267 271 33.0
e 268 125 1.0
e 269 247 2.0
e 270 167 37.0
e 271 206 15.0
e 272 291 13.0
e 273 261 15.0
e 274 250 1.0
e 275 2 1.0
e 276 261 33.0
e 277 32 1.0
e 278 218 14.0
e 279 253 10.0
e 280 238 1.0
e 281 98 1.0
e 282 208 1.0
e 283 148 4.0
e 284 176 1.0
e 285 42 37.0
e 286 58 1.0
e 287 125 12.0
e 288 62 34.0
e 289 125 1.0
e 290 303 28.0
e 291 158 41.0
e 292 118 2.0
e 293 296 1.0
e 294 85 40.0
e 295 14 1.0
e 296 14 1.0
e 297 231 2.0
e 298 91 1.0
e 299 43 1.0
e 300 52 20.0
e 301 189 1.0
e 302 111 1.0
e 303 55 34.0
e 304 28 36.0
e 305 222 49.0
e 306 202 42.0
e 307 219 2.0
e 308 134 1.0
e 309 22 2.0
e 310 80 48.0
e 311 175 1.0
e 312 62 28.0
e 313 157 1.0
e 314 22 1.0
e 315 228 1.0
e 316 246 3.0
e 317 5 1.0
e 318 140 3.0
e 319 195 1.0
